100 1 0
20 19 20 66 48 100 13 87 62 73 53 79 17 93 78 22 85 86 56 56 44 86 94 93 57 31 20 35 70 79 58 24 84 12 17 43 35 47 92 38 93 50 27 100 36 30 23 22 56 73 55 32 75 42 82 80 55 48 93 28 26 42 96 93 16 39 46 80 24 87 37 73 81 38 98 13 91 85 17 59 58 56 93 66 64 17 10 33 28 97 25 42 17 23 37 46 52 33 26 90 
55 10 97 73 69 23 62 47 90 62 96 88 95 61 94 16 91 61 27 18 96 77 14 36 17 56 83 41 52 69 97 45 94 45 47 28 82 13 82 39 28 41 55 12 50 32 97 87 36 11 20 37 87 91 19 22 89 54 20 78 52 35 18 96 54 10 39 17 51 40 25 84 54 31 97 37 63 39 60 87 63 37 13 31 84 90 84 57 21 64 63 21 95 83 81 45 68 89 100 14 
2753 
